400 800
1 2 1
1 21 1
2 3 4
2 22 5
3 4 3
3 23 4
4 5 4
4 24 5
5 6 5
5 25 4
6 7 5
6 26 2
7 8 4
7 27 5
8 9 4
8 28 1
9 10 1
9 29 2
10 11 1
10 30 2
11 12 1
11 31 1
12 13 3
12 32 2
13 14 4
13 33 4
14 15 2
14 34 1
15 16 4
15 35 4
16 17 3
16 36 3
17 18 1
17 37 3
18 19 3
18 38 3
19 20 4
19 39 1
20 40 3
21 22 1
21 41 2
22 23 1
22 42 2
23 24 4
23 43 5
24 25 1
24 44 5
25 26 4
25 45 5
26 27 2
26 46 2
27 28 3
27 47 4
28 29 3
28 48 4
29 30 2
29 49 5
30 31 3
30 50 2
31 32 5
31 51 4
32 33 3
32 52 5
33 34 1
33 53 5
34 35 4
34 54 4
35 36 4
35 55 3
36 37 5
36 56 4
37 38 1
37 57 3
38 39 3
38 58 3
39 40 2
39 59 4
40 60 4
41 42 4
41 61 5
42 43 5
42 62 4
43 44 1
43 63 3
44 45 5
44 64 4
45 46 5
45 65 4
46 47 1
46 66 2
47 48 1
47 67 1
48 49 3
48 68 4
49 50 5
49 69 2
50 51 1
50 70 3
51 52 5
51 71 3
52 53 3
52 72 5
53 54 1
53 73 2
54 55 4
54 74 1
55 56 2
55 75 3
56 57 2
56 76 1
57 58 2
57 77 4
58 59 4
58 78 1
59 60 3
59 79 5
60 80 3
61 62 1
61 81 5
62 63 4
62 82 3
63 64 1
63 83 1
64 65 5
64 84 5
65 66 3
65 85 4
66 67 3
66 86 1
67 68 4
67 87 5
68 69 1
68 88 1
69 70 2
69 89 3
70 71 5
70 90 1
71 72 4
71 91 2
72 73 1
72 92 3
73 74 5
73 93 5
74 75 3
74 94 1
75 76 4
75 95 1
76 77 2
76 96 5
77 78 1
77 97 2
78 79 4
78 98 4
79 80 2
79 99 4
80 100 1
81 82 5
81 101 2
82 83 2
82 102 2
83 84 4
83 103 4
84 85 5
84 104 4
85 86 1
85 105 1
86 87 5
86 106 5
87 88 2
87 107 3
88 89 1
88 108 1
89 90 2
89 109 3
90 91 2
90 110 4
91 92 5
91 111 5
92 93 2
92 112 4
93 94 2
93 113 5
94 95 3
94 114 1
95 96 4
95 115 2
96 97 2
96 116 5
97 98 3
97 117 5
98 99 1
98 118 4
99 100 3
99 119 4
100 120 4
101 102 4
101 121 5
102 103 4
102 122 3
103 104 4
103 123 5
104 105 2
104 124 3
105 106 1
105 125 3
106 107 5
106 126 2
107 108 2
107 127 5
108 109 5
108 128 3
109 110 1
109 129 1
110 111 3
110 130 3
111 112 4
111 131 4
112 113 4
112 132 3
113 114 1
113 133 3
114 115 3
114 134 2
115 116 2
115 135 1
116 117 2
116 136 3
117 118 2
117 137 1
118 119 1
118 138 5
119 120 2
119 139 1
120 140 1
121 122 1
121 141 2
122 123 3
122 142 5
123 124 1
123 143 2
124 125 1
124 144 3
125 126 3
125 145 3
126 127 3
126 146 3
127 128 5
127 147 1
128 129 1
128 148 3
129 130 2
129 149 5
130 131 1
130 150 3
131 132 3
131 151 2
132 133 5
132 152 5
133 134 5
133 153 2
134 135 1
134 154 2
135 136 5
135 155 1
136 137 2
136 156 2
137 138 4
137 157 5
138 139 3
138 158 1
139 140 1
139 159 3
140 160 1
141 142 4
141 161 4
142 143 3
142 162 3
143 144 5
143 163 4
144 145 1
144 164 5
145 146 2
145 165 4
146 147 1
146 166 3
147 148 4
147 167 3
148 149 5
148 168 2
149 150 4
149 169 4
150 151 2
150 170 2
151 152 4
151 171 4
152 153 3
152 172 5
153 154 3
153 173 5
154 155 2
154 174 5
155 156 4
155 175 1
156 157 2
156 176 5
157 158 1
157 177 4
158 159 1
158 178 1
159 160 3
159 179 3
160 180 3
161 162 4
161 181 4
162 163 3
162 182 3
163 164 3
163 183 1
164 165 5
164 184 4
165 166 5
165 185 3
166 167 5
166 186 5
167 168 3
167 187 2
168 169 4
168 188 5
169 170 2
169 189 1
170 171 1
170 190 1
171 172 3
171 191 5
172 173 3
172 192 1
173 174 3
173 193 4
174 175 1
174 194 2
175 176 5
175 195 1
176 177 5
176 196 2
177 178 4
177 197 1
178 179 1
178 198 5
179 180 3
179 199 2
180 200 4
181 182 2
181 201 4
182 183 1
182 202 4
183 184 5
183 203 5
184 185 3
184 204 2
185 186 4
185 205 5
186 187 3
186 206 2
187 188 2
187 207 4
188 189 2
188 208 2
189 190 1
189 209 1
190 191 3
190 210 4
191 192 1
191 211 1
192 193 2
192 212 3
193 194 5
193 213 1
194 195 4
194 214 3
195 196 1
195 215 3
196 197 1
196 216 4
197 198 3
197 217 4
198 199 3
198 218 5
199 200 5
199 219 2
200 220 2
201 202 5
201 221 1
202 203 2
202 222 1
203 204 2
203 223 1
204 205 5
204 224 4
205 206 4
205 225 1
206 207 1
206 226 2
207 208 4
207 227 3
208 209 1
208 228 3
209 210 1
209 229 5
210 211 1
210 230 1
211 212 2
211 231 5
212 213 1
212 232 3
213 214 5
213 233 3
214 215 4
214 234 3
215 216 5
215 235 2
216 217 1
216 236 4
217 218 3
217 237 1
218 219 1
218 238 4
219 220 5
219 239 2
220 240 3
221 222 5
221 241 5
222 223 5
222 242 4
223 224 5
223 243 2
224 225 1
224 244 4
225 226 4
225 245 1
226 227 5
226 246 2
227 228 4
227 247 2
228 229 5
228 248 3
229 230 2
229 249 4
230 231 1
230 250 3
231 232 5
231 251 4
232 233 3
232 252 5
233 234 5
233 253 5
234 235 5
234 254 4
235 236 1
235 255 3
236 237 3
236 256 4
237 238 1
237 257 5
238 239 5
238 258 5
239 240 2
239 259 4
240 260 3
241 242 3
241 261 1
242 243 1
242 262 4
243 244 5
243 263 5
244 245 4
244 264 5
245 246 5
245 265 1
246 247 5
246 266 5
247 248 3
247 267 5
248 249 5
248 268 3
249 250 3
249 269 5
250 251 5
250 270 5
251 252 1
251 271 1
252 253 5
252 272 3
253 254 2
253 273 5
254 255 1
254 274 5
255 256 2
255 275 4
256 257 1
256 276 1
257 258 5
257 277 4
258 259 4
258 278 4
259 260 1
259 279 4
260 280 2
261 262 2
261 281 3
262 263 4
262 282 2
263 264 3
263 283 1
264 265 3
264 284 1
265 266 5
265 285 1
266 267 4
266 286 2
267 268 4
267 287 5
268 269 2
268 288 1
269 270 4
269 289 3
270 271 1
270 290 2
271 272 2
271 291 4
272 273 3
272 292 3
273 274 4
273 293 3
274 275 4
274 294 3
275 276 5
275 295 1
276 277 3
276 296 3
277 278 4
277 297 3
278 279 2
278 298 2
279 280 1
279 299 3
280 300 5
281 282 1
281 301 4
282 283 3
282 302 2
283 284 2
283 303 1
284 285 4
284 304 3
285 286 1
285 305 5
286 287 1
286 306 2
287 288 3
287 307 5
288 289 1
288 308 5
289 290 3
289 309 3
290 291 1
290 310 3
291 292 4
291 311 2
292 293 4
292 312 1
293 294 2
293 313 5
294 295 1
294 314 3
295 296 1
295 315 4
296 297 4
296 316 1
297 298 1
297 317 3
298 299 4
298 318 3
299 300 3
299 319 1
300 320 1
301 302 1
301 321 4
302 303 2
302 322 2
303 304 4
303 323 5
304 305 5
304 324 1
305 306 4
305 325 5
306 307 1
306 326 2
307 308 3
307 327 4
308 309 4
308 328 5
309 310 3
309 329 3
310 311 3
310 330 2
311 312 5
311 331 1
312 313 3
312 332 1
313 314 1
313 333 5
314 315 3
314 334 4
315 316 2
315 335 2
316 317 4
316 336 5
317 318 4
317 337 2
318 319 5
318 338 5
319 320 4
319 339 4
320 340 5
321 322 2
321 341 1
322 323 3
322 342 2
323 324 1
323 343 1
324 325 4
324 344 4
325 326 4
325 345 1
326 327 3
326 346 3
327 328 3
327 347 5
328 329 5
328 348 5
329 330 5
329 349 2
330 331 3
330 350 1
331 332 3
331 351 2
332 333 1
332 352 2
333 334 3
333 353 3
334 335 5
334 354 5
335 336 3
335 355 1
336 337 4
336 356 3
337 338 2
337 357 5
338 339 2
338 358 1
339 340 1
339 359 4
340 360 1
341 342 3
341 361 3
342 343 3
342 362 3
343 344 3
343 363 2
344 345 3
344 364 5
345 346 5
345 365 5
346 347 4
346 366 4
347 348 4
347 367 3
348 349 5
348 368 3
349 350 3
349 369 1
350 351 5
350 370 2
351 352 2
351 371 1
352 353 4
352 372 3
353 354 3
353 373 1
354 355 3
354 374 1
355 356 1
355 375 4
356 357 3
356 376 3
357 358 2
357 377 4
358 359 2
358 378 5
359 360 1
359 379 2
360 380 1
361 362 3
361 381 4
362 363 2
362 382 1
363 364 3
363 383 2
364 365 3
364 384 2
365 366 4
365 385 4
366 367 4
366 386 3
367 368 5
367 387 4
368 369 2
368 388 3
369 370 4
369 389 4
370 371 5
370 390 4
371 372 3
371 391 3
372 373 2
372 392 4
373 374 4
373 393 5
374 375 5
374 394 3
375 376 4
375 395 5
376 377 2
376 396 1
377 378 4
377 397 2
378 379 1
378 398 2
379 380 2
379 399 3
380 400 2
381 382 4
382 383 5
383 384 5
384 385 2
385 386 4
386 387 2
387 388 2
388 389 5
389 390 5
390 391 4
391 392 2
392 393 4
393 394 5
394 395 5
395 396 2
396 397 4
397 398 4
398 399 1
399 400 3
1 381 5
2 382 4
3 383 4
4 384 5
5 385 2
6 386 3
7 387 1
8 388 4
9 389 3
10 390 5
11 391 4
12 392 1
13 393 2
14 394 3
15 395 5
16 396 3
17 397 4
18 398 4
19 399 4
20 400 2
1 20 5
21 40 4
41 60 4
61 80 5
81 100 3
101 120 4
121 140 5
141 160 5
161 180 2
181 200 2
201 220 4
221 240 3
241 260 1
261 280 4
281 300 3
301 320 5
321 340 5
341 360 3
361 380 4
381 400 5
